(set-logic QF_UF)
(declare-fun G101 () Bool)
(declare-fun G104 () Bool)
(declare-fun G107 () Bool)
(declare-fun G110 () Bool)
(declare-fun G113 () Bool)
(declare-fun G116 () Bool)
(declare-fun G119 () Bool)
(declare-fun G122 () Bool)
(declare-fun G125 () Bool)
(declare-fun G128 () Bool)
(declare-fun G131 () Bool)
(declare-fun G134 () Bool)
(declare-fun G137 () Bool)
(declare-fun G140 () Bool)
(declare-fun G143 () Bool)
(declare-fun G146 () Bool)
(declare-fun G210 () Bool)
(declare-fun G214 () Bool)
(declare-fun G217 () Bool)
(declare-fun G221 () Bool)
(declare-fun G224 () Bool)
(declare-fun G227 () Bool)
(declare-fun G234 () Bool)
(declare-fun G237 () Bool)
(declare-fun G469 () Bool)
(declare-fun G472 () Bool)
(declare-fun G475 () Bool)
(declare-fun G478 () Bool)
(declare-fun G898 () Bool)
(declare-fun G900 () Bool)
(declare-fun G902 () Bool)
(declare-fun G952 () Bool)
(declare-fun G953 () Bool)
(assert (let ((.def_0 (not G116))) (let ((.def_1 (not G140))) (let ((.def_2 (and .def_1 G110))) (let ((.def_3 (not .def_2))) (let ((.def_4 (not G110))) (let ((.def_5 (and G140 .def_4))) (let ((.def_6 (not .def_5))) (let ((.def_7 (and .def_6 .def_3))) (let ((.def_8 (not G953))) (let ((.def_9 (and .def_8 G227))) (let ((.def_10 (and .def_9 .def_7))) (let ((.def_11 (not .def_10))) (let ((.def_12 (not .def_7))) (let ((.def_13 (not .def_9))) (let ((.def_14 (and .def_13 .def_12))) (let ((.def_15 (not .def_14))) (let ((.def_16 (and .def_15 .def_11))) (let ((.def_17 (not G101))) (let ((.def_18 (not G107))) (let ((.def_19 (and G104 .def_18))) (let ((.def_20 (not .def_19))) (let ((.def_21 (not G104))) (let ((.def_22 (and .def_21 G107))) (let ((.def_23 (not .def_22))) (let ((.def_24 (and .def_23 .def_20))) (let ((.def_25 (and .def_24 .def_17))) (let ((.def_26 (not .def_25))) (let ((.def_27 (not .def_24))) (let ((.def_28 (and .def_27 G101))) (let ((.def_29 (not .def_28))) (let ((.def_30 (and .def_29 .def_26))) (let ((.def_31 (not .def_30))) (let ((.def_32 (not G146))) (let ((.def_33 (and .def_32 G143))) (let ((.def_34 (not .def_33))) (let ((.def_35 (not G143))) (let ((.def_36 (and G146 .def_35))) (let ((.def_37 (not .def_36))) (let ((.def_38 (and .def_37 .def_34))) (let ((.def_39 (not G128))) (let ((.def_40 (and .def_39 .def_38))) (let ((.def_41 (not .def_40))) (let ((.def_42 (not .def_38))) (let ((.def_43 (and G128 .def_42))) (let ((.def_44 (not .def_43))) (let ((.def_45 (and .def_44 .def_41))) (let ((.def_46 (not .def_45))) (let ((.def_47 (and .def_46 .def_31))) (let ((.def_48 (not .def_47))) (let ((.def_49 (and .def_30 .def_45))) (let ((.def_50 (not .def_49))) (let ((.def_51 (and .def_50 .def_48))) (let ((.def_52 (not .def_51))) (let ((.def_53 (not G137))) (let ((.def_54 (and .def_53 G134))) (let ((.def_55 (not .def_54))) (let ((.def_56 (not G134))) (let ((.def_57 (and .def_56 G137))) (let ((.def_58 (not .def_57))) (let ((.def_59 (and .def_58 .def_55))) (let ((.def_60 (not G131))) (let ((.def_61 (and .def_60 .def_59))) (let ((.def_62 (not .def_61))) (let ((.def_63 (not .def_59))) (let ((.def_64 (and .def_63 G131))) (let ((.def_65 (not .def_64))) (let ((.def_66 (and .def_65 .def_62))) (let ((.def_67 (not .def_66))) (let ((.def_68 (and .def_67 .def_52))) (let ((.def_69 (not .def_68))) (let ((.def_70 (and .def_66 .def_51))) (let ((.def_71 (not .def_70))) (let ((.def_72 (and .def_71 .def_69))) (let ((.def_73 (and .def_72 .def_16))) (let ((.def_74 (not .def_73))) (let ((.def_75 (not .def_16))) (let ((.def_76 (not .def_72))) (let ((.def_77 (and .def_76 .def_75))) (let ((.def_78 (not .def_77))) (let ((.def_79 (and .def_78 .def_74))) (let ((.def_80 (not .def_79))) (let ((.def_81 (not G902))) (let ((.def_82 (and .def_81 .def_80))) (let ((.def_83 (not .def_82))) (let ((.def_84 (and .def_83 G469))) (let ((.def_85 (not .def_84))) (let ((.def_86 (not G469))) (let ((.def_87 (and .def_86 .def_82))) (let ((.def_88 (not .def_87))) (let ((.def_89 (and .def_88 .def_85))) (let ((.def_90 (and .def_81 G234))) (let ((.def_91 (not .def_90))) (let ((.def_92 (and G221 .def_91))) (let ((.def_93 (not .def_92))) (let ((.def_94 (and .def_93 .def_89))) (let ((.def_95 (not G237))) (let ((.def_96 (and .def_81 .def_95))) (let ((.def_97 (not .def_96))) (let ((.def_98 (and G214 .def_97))) (let ((.def_99 (not .def_98))) (let ((.def_100 (not G119))) (let ((.def_101 (and G116 .def_100))) (let ((.def_102 (not .def_101))) (let ((.def_103 (and G119 .def_0))) (let ((.def_104 (not .def_103))) (let ((.def_105 (and .def_104 .def_102))) (let ((.def_106 (not .def_105))) (let ((.def_107 (and G113 .def_106))) (let ((.def_108 (not .def_107))) (let ((.def_109 (not G113))) (let ((.def_110 (and .def_109 .def_105))) (let ((.def_111 (not .def_110))) (let ((.def_112 (and .def_111 .def_108))) (let ((.def_113 (and .def_18 G104))) (let ((.def_114 (not .def_113))) (let ((.def_115 (and G107 .def_21))) (let ((.def_116 (not .def_115))) (let ((.def_117 (and .def_116 .def_114))) (let ((.def_118 (and .def_117 .def_17))) (let ((.def_119 (not .def_118))) (let ((.def_120 (not .def_117))) (let ((.def_121 (and .def_120 G101))) (let ((.def_122 (not .def_121))) (let ((.def_123 (and .def_122 .def_119))) (let ((.def_124 (and .def_123 .def_112))) (let ((.def_125 (not .def_124))) (let ((.def_126 (not .def_123))) (let ((.def_127 (not .def_112))) (let ((.def_128 (and .def_127 .def_126))) (let ((.def_129 (not .def_128))) (let ((.def_130 (and .def_129 .def_125))) (let ((.def_131 (and .def_4 G122))) (let ((.def_132 (not .def_131))) (let ((.def_133 (not G122))) (let ((.def_134 (and G110 .def_133))) (let ((.def_135 (not .def_134))) (let ((.def_136 (and .def_135 .def_132))) (let ((.def_137 (and .def_136 .def_130))) (let ((.def_138 (not .def_137))) (let ((.def_139 (not .def_130))) (let ((.def_140 (not .def_136))) (let ((.def_141 (and .def_140 .def_139))) (let ((.def_142 (not .def_141))) (let ((.def_143 (and .def_142 .def_138))) (let ((.def_144 (not G125))) (let ((.def_145 (and .def_35 G146))) (let ((.def_146 (not .def_145))) (let ((.def_147 (and .def_34 .def_146))) (let ((.def_148 (not .def_147))) (let ((.def_149 (and G128 .def_148))) (let ((.def_150 (not .def_149))) (let ((.def_151 (and .def_147 .def_39))) (let ((.def_152 (not .def_151))) (let ((.def_153 (and .def_152 .def_150))) (let ((.def_154 (and .def_153 .def_144))) (let ((.def_155 (not .def_154))) (let ((.def_156 (not .def_153))) (let ((.def_157 (and .def_156 G125))) (let ((.def_158 (not .def_157))) (let ((.def_159 (and .def_158 .def_155))) (let ((.def_160 (and G224 .def_8))) (let ((.def_161 (and .def_160 .def_159))) (let ((.def_162 (not .def_161))) (let ((.def_163 (not .def_160))) (let ((.def_164 (not .def_159))) (let ((.def_165 (and .def_164 .def_163))) (let ((.def_166 (not .def_165))) (let ((.def_167 (and .def_166 .def_162))) (let ((.def_168 (and .def_167 .def_143))) (let ((.def_169 (not .def_168))) (let ((.def_170 (not .def_143))) (let ((.def_171 (not .def_167))) (let ((.def_172 (and .def_171 .def_170))) (let ((.def_173 (not .def_172))) (let ((.def_174 (and .def_173 .def_169))) (let ((.def_175 (and .def_174 .def_81))) (let ((.def_176 (not .def_175))) (let ((.def_177 (and .def_97 G210))) (let ((.def_178 (and .def_177 .def_176))) (let ((.def_179 (not .def_178))) (let ((.def_180 (not .def_177))) (let ((.def_181 (and .def_180 .def_175))) (let ((.def_182 (not .def_181))) (let ((.def_183 (and .def_182 .def_179))) (let ((.def_184 (not .def_183))) (let ((.def_185 (and .def_184 .def_99))) (let ((.def_186 (and G237 G234))) (let ((.def_187 (not .def_186))) (let ((.def_188 (not G898))) (let ((.def_189 (and .def_188 G953 .def_187 G902))) (let ((.def_190 (not .def_189))) (let ((.def_191 (and .def_187 .def_8 G952))) (let ((.def_192 (not .def_191))) (let ((.def_193 (and .def_192 .def_190))) (let ((.def_194 (not .def_193))) (let ((.def_195 (and .def_8 G234 G217))) (let ((.def_196 (not .def_195))) (let ((.def_197 (and G116 .def_133))) (let ((.def_198 (not .def_197))) (let ((.def_199 (and .def_0 G122))) (let ((.def_200 (not .def_199))) (let ((.def_201 (and .def_200 .def_198))) (let ((.def_202 (not .def_201))) (let ((.def_203 (and .def_202 G107))) (let ((.def_204 (not .def_203))) (let ((.def_205 (and .def_201 .def_18))) (let ((.def_206 (not .def_205))) (let ((.def_207 (and .def_206 .def_204))) (let ((.def_208 (and .def_39 G143))) (let ((.def_209 (not .def_208))) (let ((.def_210 (and .def_35 G128))) (let ((.def_211 (not .def_210))) (let ((.def_212 (and .def_211 .def_209))) (let ((.def_213 (and .def_212 .def_56))) (let ((.def_214 (not .def_213))) (let ((.def_215 (not .def_212))) (let ((.def_216 (and G134 .def_215))) (let ((.def_217 (not .def_216))) (let ((.def_218 (and .def_217 .def_214))) (let ((.def_219 (not .def_218))) (let ((.def_220 (and .def_219 .def_207))) (let ((.def_221 (not .def_220))) (let ((.def_222 (not .def_207))) (let ((.def_223 (and .def_222 .def_218))) (let ((.def_224 (not .def_223))) (let ((.def_225 (and .def_224 .def_221))) (let ((.def_226 (not .def_225))) (let ((.def_227 (and .def_226 .def_196))) (let ((.def_228 (not .def_227))) (let ((.def_229 (and .def_225 .def_195))) (let ((.def_230 (not .def_229))) (let ((.def_231 (and .def_230 .def_228))) (let ((.def_232 (not .def_231))) (let ((.def_233 (and .def_81 .def_232))) (let ((.def_234 (not G478))) (let ((.def_235 (and .def_234 .def_233))) (let ((.def_236 (not .def_235))) (let ((.def_237 (not .def_233))) (let ((.def_238 (and .def_237 G478))) (let ((.def_239 (not .def_238))) (let ((.def_240 (and .def_239 .def_236))) (let ((.def_241 (not .def_240))) (let ((.def_242 (and .def_144 G140))) (let ((.def_243 (not .def_242))) (let ((.def_244 (and .def_1 G125))) (let ((.def_245 (not .def_244))) (let ((.def_246 (and .def_245 .def_243))) (let ((.def_247 (and .def_32 .def_246))) (let ((.def_248 (not .def_247))) (let ((.def_249 (not .def_246))) (let ((.def_250 (and G146 .def_249))) (let ((.def_251 (not .def_250))) (let ((.def_252 (and .def_251 .def_248))) (let ((.def_253 (and .def_8 G214 .def_95))) (let ((.def_254 (and G143 .def_253))) (let ((.def_255 (not .def_254))) (let ((.def_256 (not .def_253))) (let ((.def_257 (and .def_35 .def_256))) (let ((.def_258 (not .def_257))) (let ((.def_259 (and .def_258 .def_255))) (let ((.def_260 (and .def_259 .def_60))) (let ((.def_261 (not .def_260))) (let ((.def_262 (not .def_259))) (let ((.def_263 (and .def_262 G131))) (let ((.def_264 (not .def_263))) (let ((.def_265 (and .def_264 .def_261))) (let ((.def_266 (not .def_265))) (let ((.def_267 (and .def_266 .def_252))) (let ((.def_268 (not .def_267))) (let ((.def_269 (not .def_252))) (let ((.def_270 (and .def_269 .def_265))) (let ((.def_271 (not .def_270))) (let ((.def_272 (and .def_271 .def_268))) (let ((.def_273 (and G122 .def_109))) (let ((.def_274 (not .def_273))) (let ((.def_275 (and .def_133 G113))) (let ((.def_276 (not .def_275))) (let ((.def_277 (and .def_276 .def_274))) (let ((.def_278 (and .def_277 .def_21))) (let ((.def_279 (not .def_278))) (let ((.def_280 (not .def_277))) (let ((.def_281 (and G104 .def_280))) (let ((.def_282 (not .def_281))) (let ((.def_283 (and .def_282 .def_279))) (let ((.def_284 (not .def_283))) (let ((.def_285 (and .def_284 .def_272))) (let ((.def_286 (not .def_285))) (let ((.def_287 (not .def_272))) (let ((.def_288 (and .def_283 .def_287))) (let ((.def_289 (not .def_288))) (let ((.def_290 (and .def_289 .def_286))) (let ((.def_291 (not .def_290))) (let ((.def_292 (and .def_81 .def_291))) (let ((.def_293 (not G475))) (let ((.def_294 (and .def_293 .def_292))) (let ((.def_295 (not .def_294))) (let ((.def_296 (not .def_292))) (let ((.def_297 (and .def_296 G475))) (let ((.def_298 (not .def_297))) (let ((.def_299 (and .def_298 .def_295))) (let ((.def_300 (and .def_299 .def_241))) (let ((.def_301 (and G128 .def_100))) (let ((.def_302 (not .def_301))) (let ((.def_303 (and G119 .def_39))) (let ((.def_304 (not .def_303))) (let ((.def_305 (and .def_304 .def_302))) (let ((.def_306 (not .def_305))) (let ((.def_307 (and .def_306 G110))) (let ((.def_308 (not .def_307))) (let ((.def_309 (and .def_4 .def_305))) (let ((.def_310 (not .def_309))) (let ((.def_311 (and .def_310 .def_308))) (let ((.def_312 (and .def_246 .def_32))) (let ((.def_313 (not .def_312))) (let ((.def_314 (and .def_251 .def_313))) (let ((.def_315 (not .def_314))) (let ((.def_316 (and .def_315 .def_311))) (let ((.def_317 (not .def_316))) (let ((.def_318 (not .def_311))) (let ((.def_319 (and .def_314 .def_318))) (let ((.def_320 (not .def_319))) (let ((.def_321 (and .def_320 .def_317))) (let ((.def_322 (not .def_321))) (let ((.def_323 (and G234 G221 .def_8))) (let ((.def_324 (and G137 .def_323))) (let ((.def_325 (not .def_324))) (let ((.def_326 (not .def_323))) (let ((.def_327 (and .def_326 .def_53))) (let ((.def_328 (not .def_327))) (let ((.def_329 (and .def_328 .def_325))) (let ((.def_330 (not .def_329))) (let ((.def_331 (and .def_330 .def_322))) (let ((.def_332 (not .def_331))) (let ((.def_333 (and .def_329 .def_321))) (let ((.def_334 (not .def_333))) (let ((.def_335 (and .def_334 .def_332))) (let ((.def_336 (not .def_335))) (let ((.def_337 (and .def_336 .def_81))) (let ((.def_338 (not .def_337))) (let ((.def_339 (and .def_91 G217))) (let ((.def_340 (and .def_339 .def_338))) (let ((.def_341 (not .def_340))) (let ((.def_342 (not .def_339))) (let ((.def_343 (and .def_342 .def_337))) (let ((.def_344 (not .def_343))) (let ((.def_345 (and .def_344 .def_341))) (let ((.def_346 (and .def_8 .def_95 G210))) (let ((.def_347 (and G101 .def_346))) (let ((.def_348 (not .def_347))) (let ((.def_349 (not .def_346))) (let ((.def_350 (and .def_17 .def_349))) (let ((.def_351 (not .def_350))) (let ((.def_352 (and .def_351 .def_348))) (let ((.def_353 (not .def_352))) (let ((.def_354 (and .def_0 G119))) (let ((.def_355 (not .def_354))) (let ((.def_356 (and .def_102 .def_355))) (let ((.def_357 (and .def_109 .def_356))) (let ((.def_358 (not .def_357))) (let ((.def_359 (not .def_356))) (let ((.def_360 (and .def_359 G113))) (let ((.def_361 (not .def_360))) (let ((.def_362 (and .def_361 .def_358))) (let ((.def_363 (and .def_153 .def_66))) (let ((.def_364 (not .def_363))) (let ((.def_365 (and .def_67 .def_156))) (let ((.def_366 (not .def_365))) (let ((.def_367 (and .def_366 .def_364))) (let ((.def_368 (and .def_367 .def_362))) (let ((.def_369 (not .def_368))) (let ((.def_370 (not .def_362))) (let ((.def_371 (not .def_367))) (let ((.def_372 (and .def_371 .def_370))) (let ((.def_373 (not .def_372))) (let ((.def_374 (and .def_373 .def_369))) (let ((.def_375 (and .def_374 .def_353))) (let ((.def_376 (not .def_375))) (let ((.def_377 (not .def_374))) (let ((.def_378 (and .def_352 .def_377))) (let ((.def_379 (not .def_378))) (let ((.def_380 (and .def_379 .def_376))) (let ((.def_381 (not .def_380))) (let ((.def_382 (and .def_81 .def_381))) (let ((.def_383 (not .def_382))) (let ((.def_384 (and G472 .def_383))) (let ((.def_385 (not .def_384))) (let ((.def_386 (not G472))) (let ((.def_387 (and .def_386 .def_382))) (let ((.def_388 (not .def_387))) (let ((.def_389 (and .def_388 .def_385))) (let ((.def_390 (not .def_389))) (let ((.def_391 (and .def_390 .def_345))) (let ((.def_392 (and .def_391 .def_300 .def_194 .def_185 .def_94))) (let ((.def_393 (and .def_392 .def_0))) (let ((.def_394 (not .def_393))) (let ((.def_395 (not .def_392))) (let ((.def_396 (and G116 .def_395))) (let ((.def_397 (not .def_396))) (let ((.def_398 (and .def_397 .def_394))) (let ((.def_399 (not .def_398))) (let ((.def_400 (and G224 G898))) (let ((.def_401 (not .def_400))) (let ((.def_402 (and .def_401 G953))) (let ((.def_403 (and .def_126 .def_127))) (let ((.def_404 (not .def_403))) (let ((.def_405 (and .def_404 .def_125))) (let ((.def_406 (and .def_136 .def_405))) (let ((.def_407 (not .def_406))) (let ((.def_408 (not .def_405))) (let ((.def_409 (and .def_408 .def_140))) (let ((.def_410 (not .def_409))) (let ((.def_411 (and .def_410 .def_407))) (let ((.def_412 (and .def_188 G953))) (let ((.def_413 (not .def_412))) (let ((.def_414 (and .def_413 .def_411))) (let ((.def_415 (not .def_414))) (let ((.def_416 (not .def_299))) (let ((.def_417 (and .def_240 .def_416))) (let ((.def_418 (and .def_417 .def_391 .def_194 .def_185 .def_94))) (let ((.def_419 (not .def_418))) (let ((.def_420 (and .def_240 .def_299))) (let ((.def_421 (not .def_345))) (let ((.def_422 (and .def_390 .def_421))) (let ((.def_423 (and .def_422 .def_194 .def_185 .def_94 .def_420))) (let ((.def_424 (not .def_423))) (let ((.def_425 (not .def_89))) (let ((.def_426 (and .def_93 .def_425))) (let ((.def_427 (and .def_420 .def_391 .def_194 .def_185 .def_426))) (let ((.def_428 (not .def_427))) (let ((.def_429 (and .def_389 .def_345))) (let ((.def_430 (and .def_429 .def_300 .def_194 .def_185 .def_426))) (let ((.def_431 (not .def_430))) (let ((.def_432 (and .def_389 .def_421))) (let ((.def_433 (and .def_420 .def_432 .def_194 .def_185 .def_426))) (let ((.def_434 (not .def_433))) (let ((.def_435 (and .def_429 .def_417 .def_194 .def_185 .def_426))) (let ((.def_436 (not .def_435))) (let ((.def_437 (and .def_241 .def_416))) (let ((.def_438 (and .def_429 .def_437 .def_194 .def_185 .def_94))) (let ((.def_439 (not .def_438))) (let ((.def_440 (and .def_395 .def_439 .def_436 .def_434 .def_431 .def_428 .def_424 .def_419))) (let ((.def_441 (not .def_440))) (let ((.def_442 (and .def_8 .def_441))) (let ((.def_443 (and .def_442 .def_415))) (let ((.def_444 (not .def_443))) (let ((.def_445 (not .def_442))) (let ((.def_446 (and .def_445 .def_414))) (let ((.def_447 (not .def_446))) (let ((.def_448 (and .def_447 .def_444))) (let ((.def_449 (and .def_448 .def_402))) (let ((.def_450 (not .def_449))) (let ((.def_451 (not .def_402))) (let ((.def_452 (not .def_448))) (let ((.def_453 (and .def_452 .def_451))) (let ((.def_454 (not .def_453))) (let ((.def_455 (and .def_454 .def_450))) (let ((.def_456 (not .def_455))) (let ((.def_457 (not G952))) (let ((.def_458 (and .def_457 G953))) (let ((.def_459 (not .def_458))) (let ((.def_460 (and .def_4 G140))) (let ((.def_461 (not .def_460))) (let ((.def_462 (and .def_461 .def_3))) (let ((.def_463 (and .def_462 .def_9))) (let ((.def_464 (not .def_463))) (let ((.def_465 (not .def_462))) (let ((.def_466 (and .def_465 .def_13))) (let ((.def_467 (not .def_466))) (let ((.def_468 (and .def_467 .def_464))) (let ((.def_469 (and .def_45 .def_30))) (let ((.def_470 (not .def_469))) (let ((.def_471 (and .def_31 .def_46))) (let ((.def_472 (not .def_471))) (let ((.def_473 (and .def_472 .def_470))) (let ((.def_474 (not .def_473))) (let ((.def_475 (and .def_474 .def_67))) (let ((.def_476 (not .def_475))) (let ((.def_477 (and .def_473 .def_66))) (let ((.def_478 (not .def_477))) (let ((.def_479 (and .def_478 .def_476))) (let ((.def_480 (and .def_479 .def_468))) (let ((.def_481 (not .def_480))) (let ((.def_482 (not .def_468))) (let ((.def_483 (not .def_479))) (let ((.def_484 (and .def_483 .def_482))) (let ((.def_485 (not .def_484))) (let ((.def_486 (and .def_485 .def_481))) (let ((.def_487 (and .def_99 .def_183))) (let ((.def_488 (not G900))) (let ((.def_489 (and .def_187 G953 G902 .def_488))) (let ((.def_490 (not .def_489))) (let ((.def_491 (and .def_490 .def_192))) (let ((.def_492 (not .def_491))) (let ((.def_493 (and .def_426 .def_391 .def_492 .def_300 .def_487))) (let ((.def_494 (not .def_493))) (let ((.def_495 (and .def_426 .def_422 .def_492 .def_487 .def_420))) (let ((.def_496 (not .def_495))) (let ((.def_497 (and .def_422 .def_492 .def_300 .def_185 .def_426))) (let ((.def_498 (not .def_497))) (let ((.def_499 (and .def_426 .def_422 .def_417 .def_492 .def_185))) (let ((.def_500 (not .def_499))) (let ((.def_501 (and .def_426 .def_417 .def_391 .def_492 .def_487))) (let ((.def_502 (not .def_501))) (let ((.def_503 (and .def_417 .def_492 .def_432 .def_185 .def_94))) (let ((.def_504 (not .def_503))) (let ((.def_505 (and .def_426 .def_417 .def_492 .def_432 .def_487))) (let ((.def_506 (not .def_505))) (let ((.def_507 (and .def_426 .def_437 .def_391 .def_492 .def_185))) (let ((.def_508 (not .def_507))) (let ((.def_509 (and .def_508 .def_506 .def_504 .def_502 .def_500 .def_498 .def_496 .def_494))) (let ((.def_510 (and .def_509 .def_440))) (let ((.def_511 (not .def_510))) (let ((.def_512 (and .def_511 G902 G469))) (let ((.def_513 (and .def_512 .def_486))) (let ((.def_514 (not .def_513))) (let ((.def_515 (not .def_486))) (let ((.def_516 (not .def_512))) (let ((.def_517 (and .def_516 .def_515))) (let ((.def_518 (not .def_517))) (let ((.def_519 (and .def_518 .def_514))) (let ((.def_520 (not .def_519))) (let ((.def_521 (and .def_520 .def_459))) (let ((.def_522 (not .def_521))) (let ((.def_523 (and .def_56 .def_493))) (let ((.def_524 (not .def_523))) (let ((.def_525 (and G134 .def_494))) (let ((.def_526 (not .def_525))) (let ((.def_527 (and .def_526 .def_524))) (let ((.def_528 (not .def_527))) (let ((.def_529 (and .def_100 .def_423))) (let ((.def_530 (not .def_529))) (let ((.def_531 (and .def_424 G119))) (let ((.def_532 (not .def_531))) (let ((.def_533 (and .def_532 .def_530))) (let ((.def_534 (not .def_533))) (let ((.def_535 (and .def_133 .def_438))) (let ((.def_536 (not .def_535))) (let ((.def_537 (and .def_439 G122))) (let ((.def_538 (not .def_537))) (let ((.def_539 (and .def_538 .def_536))) (let ((.def_540 (not .def_539))) (let ((.def_541 (and .def_1 .def_505))) (let ((.def_542 (not .def_541))) (let ((.def_543 (and G140 .def_506))) (let ((.def_544 (not .def_543))) (let ((.def_545 (and .def_544 .def_542))) (let ((.def_546 (not .def_545))) (let ((.def_547 (and G900 G227))) (let ((.def_548 (not .def_547))) (let ((.def_549 (and G953 .def_548))) (let ((.def_550 (and G125 .def_1))) (let ((.def_551 (not .def_550))) (let ((.def_552 (and .def_243 .def_551))) (let ((.def_553 (and G137 .def_56))) (let ((.def_554 (not .def_553))) (let ((.def_555 (and .def_554 .def_55))) (let ((.def_556 (not .def_555))) (let ((.def_557 (and .def_556 G131))) (let ((.def_558 (not .def_557))) (let ((.def_559 (and .def_60 .def_555))) (let ((.def_560 (not .def_559))) (let ((.def_561 (and .def_560 .def_558))) (let ((.def_562 (and .def_561 .def_45))) (let ((.def_563 (not .def_562))) (let ((.def_564 (not .def_561))) (let ((.def_565 (and .def_46 .def_564))) (let ((.def_566 (not .def_565))) (let ((.def_567 (and .def_566 .def_563))) (let ((.def_568 (and .def_567 .def_552))) (let ((.def_569 (not .def_568))) (let ((.def_570 (not .def_552))) (let ((.def_571 (not .def_567))) (let ((.def_572 (and .def_571 .def_570))) (let ((.def_573 (not .def_572))) (let ((.def_574 (and .def_573 .def_569))) (let ((.def_575 (and G953 .def_488))) (let ((.def_576 (not .def_575))) (let ((.def_577 (and .def_576 .def_574))) (let ((.def_578 (not .def_577))) (let ((.def_579 (not .def_509))) (let ((.def_580 (and .def_579 .def_8))) (let ((.def_581 (and .def_580 .def_578))) (let ((.def_582 (not .def_581))) (let ((.def_583 (not .def_580))) (let ((.def_584 (and .def_583 .def_577))) (let ((.def_585 (not .def_584))) (let ((.def_586 (and .def_585 .def_582))) (let ((.def_587 (and .def_586 .def_549))) (let ((.def_588 (not .def_587))) (let ((.def_589 (not .def_549))) (let ((.def_590 (not .def_586))) (let ((.def_591 (and .def_590 .def_589))) (let ((.def_592 (not .def_591))) (let ((.def_593 (and .def_592 .def_588))) (let ((.def_594 (not .def_593))) (let ((.def_595 (and G104 .def_436))) (let ((.def_596 (not .def_595))) (let ((.def_597 (and .def_21 .def_435))) (let ((.def_598 (not .def_597))) (let ((.def_599 (and .def_598 .def_596))) (let ((.def_600 (and G125 .def_156))) (let ((.def_601 (not .def_600))) (let ((.def_602 (and .def_601 .def_155))) (let ((.def_603 (and .def_160 .def_602))) (let ((.def_604 (not .def_603))) (let ((.def_605 (not .def_602))) (let ((.def_606 (and .def_605 .def_163))) (let ((.def_607 (not .def_606))) (let ((.def_608 (and .def_607 .def_604))) (let ((.def_609 (and .def_170 .def_608))) (let ((.def_610 (not .def_609))) (let ((.def_611 (not .def_608))) (let ((.def_612 (and .def_611 .def_143))) (let ((.def_613 (not .def_612))) (let ((.def_614 (and .def_613 .def_610))) (let ((.def_615 (and .def_511 G902 .def_177))) (let ((.def_616 (and .def_615 .def_614))) (let ((.def_617 (not .def_616))) (let ((.def_618 (not .def_615))) (let ((.def_619 (not .def_614))) (let ((.def_620 (and .def_619 .def_618))) (let ((.def_621 (not .def_620))) (let ((.def_622 (and .def_621 .def_617))) (let ((.def_623 (not .def_622))) (let ((.def_624 (and .def_623 .def_459))) (let ((.def_625 (and .def_511 G902 G478))) (let ((.def_626 (and .def_231 .def_625))) (let ((.def_627 (not .def_626))) (let ((.def_628 (not .def_625))) (let ((.def_629 (and .def_232 .def_628))) (let ((.def_630 (not .def_629))) (let ((.def_631 (and .def_630 .def_627))) (let ((.def_632 (not .def_631))) (let ((.def_633 (and .def_459 .def_632))) (let ((.def_634 (not .def_633))) (let ((.def_635 (and .def_507 .def_35))) (let ((.def_636 (not .def_635))) (let ((.def_637 (and G143 .def_508))) (let ((.def_638 (not .def_637))) (let ((.def_639 (and .def_638 .def_636))) (let ((.def_640 (not .def_639))) (let ((.def_641 (and .def_109 .def_418))) (let ((.def_642 (not .def_641))) (let ((.def_643 (and G113 .def_419))) (let ((.def_644 (not .def_643))) (let ((.def_645 (and .def_644 .def_642))) (let ((.def_646 (not .def_645))) (let ((.def_647 (and G125 .def_504))) (let ((.def_648 (not .def_647))) (let ((.def_649 (and .def_144 .def_503))) (let ((.def_650 (not .def_649))) (let ((.def_651 (and .def_650 .def_648))) (let ((.def_652 (and .def_428 G101))) (let ((.def_653 (not .def_652))) (let ((.def_654 (and .def_17 .def_427))) (let ((.def_655 (not .def_654))) (let ((.def_656 (and .def_655 .def_653))) (let ((.def_657 (and .def_656 .def_651 .def_646 .def_640 .def_634 .def_624 .def_599 .def_594 .def_546 .def_540 .def_534 .def_528 .def_522 .def_456 .def_399))) .def_657)))))))))))))))))))))))))))))))))))))))))))))))))))))))))))))))))))))))))))))))))))))))))))))))))))))))))))))))))))))))))))))))))))))))))))))))))))))))))))))))))))))))))))))))))))))))))))))))))))))))))))))))))))))))))))))))))))))))))))))))))))))))))))))))))))))))))))))))))))))))))))))))))))))))))))))))))))))))))))))))))))))))))))))))))))))))))))))))))))))))))))))))))))))))))))))))))))))))))))))))))))))))))))))))))))))))))))))))))))))))))))))))))))))))))))))))))))))))))))))))))))))))))))))))))))))))))))))))))))))))))))))))))))))))))))))))))))))))))))))))))))))))))))))))))))))))))))))))))))))))))))))))))))))))))))))))))))))))))))))))))))))))))))))))))))
(check-sat)
